Route 1: 0 24 4 27 54 2 81 96 89 0
Route 2: 0 69 49 71 44 17 32 56 47 12 0
Route 3: 0 29 38 48 77 40 37 0
Route 4: 0 82 91 13 83 52 58 21 73 0
Route 5: 0 19 60 10 66 30 95 9 64 28 22 0
Route 6: 0 68 6 45 59 33 18 94 55 42 85 0
Route 7: 0 1 62 87 43 46 86 14 80 41 15 0
Route 8: 0 8 7 100 63 34 79 78 0
Route 9: 0 61 70 20 72 23 50 0
Route 10: 0 11 93 53 98 97 67 74 26 39 99 0
Route 11: 0 25 90 5 35 57 31 88 51 3 76 75 92 0
Route 12: 0 65 36 84 16 0
